NAME : P = NP
TYPE : TSP
DIMENSION : 54
EDGE_WEIGHT_TYPE : EUC_2D
NODE_COORD_SECTION
0 145 260
1 217 208
2 233 512
3 168 1
4 181 609
5 10 455
6 9 281
7 55 4
8 817 502
9 277 660
10 542 388
11 660 75
12 500 284
13 15 311
14 637 1
15 4 431
16 316 132
17 4 213
18 90 318
19 381 603
20 428 18
21 3 792
22 145 350
23 51 195
24 72 287
25 361 73
26 38 65
27 59 65
28 316 159
29 793 20
30 125 301
31 178 127
32 12 263
33 92 137
34 491 155
35 39 41
36 280 162
37 162 300
38 78 7
39 535 47
40 157 181
41 90 573
42 189 28
43 162 348
44 1 32
45 510 81
46 780 660
47 28 196
48 250 615
49 143 576
50 20 205
51 107 425
52 82 292
53 282 696